
******************************************************************************
This program contains Ipopt, a library for large-scale nonlinear optimization.
 Ipopt is released as open source code under the Eclipse Public License (EPL).
         For more information visit http://projects.coin-or.org/Ipopt
******************************************************************************

This is Ipopt version 3.12.6, running with linear solver ma57.

Number of nonzeros in equality constraint Jacobian...:        0
Number of nonzeros in inequality constraint Jacobian.:        0
Number of nonzeros in Lagrangian Hessian.............:    14997

Total number of variables............................:     5000
                     variables with only lower bounds:        0
                variables with lower and upper bounds:        0
                     variables with only upper bounds:        0
Total number of equality constraints.................:        0
Total number of inequality constraints...............:        0
        inequality constraints with only lower bounds:        0
   inequality constraints with lower and upper bounds:        0
        inequality constraints with only upper bounds:        0

iter    objective    inf_pr   inf_du lg(mu)  ||d||  lg(rg) alpha_du alpha_pr  ls
   0 -1.4294606e+04 0.00e+00 1.06e+00  -1.0 0.00e+00    -  0.00e+00 0.00e+00   0
   1 -1.4985655e+04 0.00e+00 1.20e-01  -1.0 2.86e-01    -  1.00e+00 1.00e+00f  1
   2 -1.4994000e+04 0.00e+00 1.33e-04  -2.5 2.79e-02    -  1.00e+00 1.00e+00f  1
   3 -1.4994000e+04 0.00e+00 1.87e-13  -5.7 3.11e-05    -  1.00e+00 1.00e+00f  1

Number of Iterations....: 3

                                   (scaled)                 (unscaled)
Objective...............:  -1.4994000000000000e+04   -1.4994000000000000e+04
Dual infeasibility......:   1.8728019838945256e-13    1.8728019838945256e-13
Constraint violation....:   0.0000000000000000e+00    0.0000000000000000e+00
Complementarity.........:   0.0000000000000000e+00    0.0000000000000000e+00
Overall NLP error.......:   1.8728019838945256e-13    1.8728019838945256e-13


Number of objective function evaluations             = 4
Number of objective gradient evaluations             = 4
Number of equality constraint evaluations            = 0
Number of inequality constraint evaluations          = 0
Number of equality constraint Jacobian evaluations   = 0
Number of inequality constraint Jacobian evaluations = 0
Number of Lagrangian Hessian evaluations             = 3
Total CPU secs in IPOPT (w/o function evaluations)   =      0.037
Total CPU secs in NLP function evaluations           =      0.043

EXIT: Optimal Solution Found.
Note: The following floating-point exceptions are signalling: IEEE_INVALID_FLAG IEEE_DIVIDE_BY_ZERO

 ** SUBROUTINE CUTEST_csetup: Warning. The problem has no general constraints. 
 ** Other tools may be preferable ** 

************************ CUTEst statistics ************************


 Package used            :  IPOPT
 Problem                 :  SCHMVETT  
 # variables             =            5000
 # constraints           =               0
 # objective functions   =        0.9000000E+01
 # objective gradients   =        0.5000000E+01
 # objective Hessians    =        0.4000000E+01
 # Hessian-vector prdct  =        0.0000000E+00
 # constraints functions =        0.0000000E+00
 # constraints gradients =        0.0000000E+00
 # constraints Hessians  =        0.0000000E+00
 Exit code               =               0
 Final f                 =  -0.1499400E+05
 Set up time             =            0.12 seconds
 Solve time              =            0.17 seconds


******************************************************************

System Time =       0.0430000015 s.
